
Gurobi 11.0.3 (linux64) logging started Mon Aug 25 13:37:19 2025

Set parameter LogFile to value "/home/yihong/Coding/OR_SUC/SUC_epstheta_results_bigM100000_thread4/case24_ieee_rts_theta0.1_epsilon0.1_gurobi_seed50000_num_gen100_N_WDR50_load_scaling_factor1_ori_eps_T5quadra_cost_bc1.03.txt"
Set parameter TimeLimit to value 3600
Gurobi Optimizer version 11.0.3 build v11.0.3rc0 (linux64 - "Ubuntu 20.04.6 LTS")

CPU model: AMD EPYC 7532 32-Core Processor, instruction set [SSE2|AVX|AVX2]
Thread count: 64 physical cores, 128 logical processors, using up to 4 threads

Academic license 2399124 - for non-commercial use only - registered to yi___@ed.ac.uk
Optimize a model with 11547 rows, 6251 columns and 272622 nonzeros
Model fingerprint: 0x2bd2b23e
Model has 500 quadratic constraints
Variable types: 5751 continuous, 500 integer (500 binary)
Coefficient statistics:
  Matrix range     [3e-04, 3e+03]
  QMatrix range    [2e-03, 8e-03]
  QLMatrix range   [2e-01, 6e+01]
  Objective range  [1e+00, 1e+00]
  Bounds range     [1e+00, 1e+00]
  RHS range        [1e+00, 8e+03]
Presolve removed 9675 rows and 2849 columns
Presolve time: 0.08s
Presolved: 1872 rows, 3402 columns, 11444 nonzeros
Presolved model has 500 quadratic constraint(s)
Variable types: 2902 continuous, 500 integer (500 binary)

Root relaxation: objective 5.729679e+03, 1410 iterations, 0.02 seconds (0.02 work units)

    Nodes    |    Current Node    |     Objective Bounds      |     Work
 Expl Unexpl |  Obj  Depth IntInf | Incumbent    BestBd   Gap | It/Node Time

H    0     0                    93981.397290 5729.67863  93.9%     -    0s
*    0     0               0    93981.397290 5729.67863  93.9%     -    0s
     0     0 7232.89607    0  130 93981.3973 7232.89607  92.3%     -    0s
     0     0 76714.7556    0  110 93981.3973 76714.7556  18.4%     -    0s
     0     0 81297.0764    0  116 93981.3973 81297.0764  13.5%     -    0s
     0     0 81303.4015    0   12 93981.3973 81303.4015  13.5%     -    0s
     0     0 81304.8677    0   12 93981.3973 81304.8677  13.5%     -    0s
     0     0 81304.8677    0   17 93981.3973 81304.8677  13.5%     -    0s
     0     0 81305.4938    0   17 93981.3973 81305.4938  13.5%     -    0s
     0     2 81305.4938    0   17 93981.3973 81305.4938  13.5%     -    0s
H  126   133                    81312.344586 81308.2687  0.01%  13.7    1s
*  126   133              31    81312.344586 81308.2687  0.01%  13.7    1s

Cutting planes:
  Gomory: 37
  Implied bound: 58
  MIR: 21
  Flow cover: 142
  RLT: 1
  Relax-and-lift: 73

Explored 142 nodes (7108 simplex iterations) in 1.02 seconds (0.92 work units)
Thread count was 4 (of 128 available processors)

Solution count 2: 81312.3 93981.4 

Optimal solution found (tolerance 1.00e-03)
Warning: max constraint violation (9.5139e-09) exceeds tolerance
Best objective 8.131234458582e+04, best bound 8.130826872231e+04, gap 0.0050%

Gurobi 11.0.3 (linux64) logging started Mon Aug 25 13:37:21 2025

Set parameter LogFile to value "/home/yihong/Coding/OR_SUC/SUC_epstheta_results_bigM100000_thread4/case24_ieee_rts_theta0.1_epsilon0.1_gurobi_seed50000_num_gen100_N_WDR50_load_scaling_factor1_ori_eps_T5quadra_cost_bc1.03.txt"
Set parameter TimeLimit to value 3600
Gurobi Optimizer version 11.0.3 build v11.0.3rc0 (linux64 - "Ubuntu 20.04.6 LTS")

CPU model: AMD EPYC 7532 32-Core Processor, instruction set [SSE2|AVX|AVX2]
Thread count: 64 physical cores, 128 logical processors, using up to 4 threads

Academic license 2399124 - for non-commercial use only - registered to yi___@ed.ac.uk
Optimize a model with 28707 rows, 6252 columns and 2129551 nonzeros
Model fingerprint: 0x5daca01a
Model has 501 quadratic constraints
Variable types: 5752 continuous, 500 integer (500 binary)
Coefficient statistics:
  Matrix range     [3e-04, 3e+03]
  QMatrix range    [2e-03, 5e+01]
  QLMatrix range   [2e-01, 6e+01]
  Objective range  [1e+00, 1e+00]
  Bounds range     [1e-01, 1e+00]
  RHS range        [5e-02, 8e+04]
  QRHS range       [5e+00, 5e+00]
Presolve removed 8573 rows and 2346 columns
Presolve time: 1.83s
Presolved: 20636 rows, 4407 columns, 431272 nonzeros
Presolved model has 500 quadratic constraint(s)
Presolved model has 1 bilinear constraint(s)
Warning: Model contains variables with very large bounds participating
         in product terms.
         Presolve was not able to compute smaller bounds for these variables.
         Consider bounding these variables or reformulating the model.


Solving non-convex MIQCP

Variable types: 3905 continuous, 502 integer (502 binary)

Root relaxation: objective 0.000000e+00, 2583 iterations, 0.49 seconds (1.34 work units)

    Nodes    |    Current Node    |     Objective Bounds      |     Work
 Expl Unexpl |  Obj  Depth IntInf | Incumbent    BestBd   Gap | It/Node Time

     0     0    0.00000    0    1          -    0.00000      -     -    4s
H    0     0                       0.0333333    0.00000   100%     -  659s
H    0     0                       0.0211576    0.00000   100%     -  659s
H    0     0                       0.0195843    0.01861  5.00%     -  659s
H    0     0                       0.0195577    0.01861  4.87%     -  659s
H    0     0                       0.0193227    0.01861  3.71%     -  659s
H    0     0                       0.0193223    0.01861  3.71%     -  659s
H    0     0                       0.0193223    0.01861  3.71%     -  659s
H    0     0                       0.0193146    0.01861  3.67%     -  659s
H    0     0                       0.0193146    0.01861  3.67%     -  659s
H    0     0                       0.0189817    0.01861  1.98%     -  659s
     0     0    0.01879    0   11    0.01898    0.01879  1.00%     -  660s
     0     0    0.01879    0   11    0.01898    0.01879  1.00%     -  660s
     0     0    0.01879    0    7    0.01898    0.01879  1.00%     -  660s
     0     0    0.01879    0    6    0.01898    0.01879  1.00%     -  660s
     0     0    0.01879    0    6    0.01898    0.01879  1.00%     -  661s
     0     0    0.01879    0    6    0.01898    0.01879  1.00%     -  661s
H    0     0                       0.0188090    0.01879  0.09%     -  661s

Cutting planes:
  Implied bound: 11
  MIR: 2
  Flow cover: 1
  RLT: 6

Explored 1 nodes (4979 simplex iterations) in 661.72 seconds (300.64 work units)
Thread count was 4 (of 128 available processors)

Solution count 10: 0.018809 0.0189817 0.0193146 ... 0.0211576

Optimal solution found (tolerance 1.00e-03)
Best objective 1.880898037167e-02, best bound 1.879151847319e-02, gap 0.0928%
